NAME : Unnamed.875.tour
COMMENT : Length = 875
COMMENT : Found by LKH [Keld Helsgaun] Wed Oct 22 13:41:31 2014
TYPE : TOUR
DIMENSION : 108
TOUR_SECTION
1
8
7
4
3
73
54
74
67
53
68
59
71
58
26
45
16
15
44
30
25
46
23
40
42
50
36
31
47
51
24
34
19
90
88
84
83
89
95
91
87
92
75
97
80
86
85
93
78
106
103
79
82
81
76
94
72
32
49
27
18
41
39
35
20
43
29
17
38
33
37
21
22
14
48
66
13
28
61
107
62
99
104
98
96
100
102
105
101
77
65
60
69
55
57
70
56
52
64
63
10
11
6
5
9
108
2
12
-1
EOF
